c User generated cnf file
p cnf 7 28
6 3 -3 0 
4 4 -6 0 
6 -6 6 0 
3 2 -5 0 
3 -2 1 0 
3 -6 4 0 
2 -2 4 0 
2 1 -3 0 
5 1 -4 0 
3 -4 2 0 
4 2 -4 0 
5 -1 5 0 
2 4 -6 0 
2 1 -1 0 
4 7 -3 0 
5 -5 4 0 
7 7 -4 0 
1 1 -2 0 
6 -4 3 0 
7 -3 7 0 
1 -7 2 0 
3 1 -6 0 
4 7 -2 0 
6 3 -1 0 
3 2 -1 0 
6 2 -2 0 
5 -2 7 0 
3 4 -2 0 
